
  12    4
  10   10   10   10

   0   0   0   0   0   4 2 3 4 6 
   3  10  10  10  10   3 11 10 5 
   1  10  10  10  10   3 11 10 5 
   6  10  10  10  10   5 11 10 9 8 7 
  10  10  10  10  10   3 9 8 7 
  10  10  10  10  10   2 8 7 
   2  10  10  10  10   1 12
   6  10  10  10  10   1 12
  10  10  10  10  10   1 12
   8  10  10  10  10   1 12
   2  10  10  10  10   1 12
   0   0   0   0   0   0 
